
Log started (V20.1.0.0) Sun Apr 24 16:04:52 2022


Problem 'file.lp' read.
Read time = 0.01 sec. (0.00 ticks)
Version identifier: 20.1.0.0 | 2020-11-10 | 9bedb6d68
Found incumbent of value 0.000000 after 0.00 sec. (0.00 ticks)
Tried aggregator 2 times.
MIP Presolve eliminated 3 rows and 2 columns.
Aggregator did 1 substitutions.
All rows and columns eliminated.
Presolve time = 0.00 sec. (0.01 ticks)

Root node processing (before b&c):
  Real time             =    0.00 sec. (0.01 ticks)
Parallel b&c, 6 threads:
  Real time             =    0.00 sec. (0.00 ticks)
  Sync time (average)   =    0.00 sec.
  Wait time (average)   =    0.00 sec.
                          ------------
Total (root+branch&cut) =    0.00 sec. (0.01 ticks)

Solution pool: 2 solutions saved.

MIP - Integer optimal solution:  Objective =  6.9000000000e+03
Solution time =    0.00 sec.  Iterations = 0  Nodes = 0 (1)
Deterministic time = 0.01 ticks  (8.17 ticks/sec)


Incumbent solution
Variable Name           Solution Value
quantProd#1                 150.000000
quantProd#2                 200.000000
All other variables matching '*' are 0.

Log started (V20.1.0.0) Sun Apr 24 16:06:17 2022


Problem 'file.lp' read.
Read time = 0.00 sec. (0.00 ticks)
Version identifier: 20.1.0.0 | 2020-11-10 | 9bedb6d68
Found incumbent of value 0.000000 after 0.00 sec. (0.00 ticks)
Tried aggregator 2 times.
MIP Presolve eliminated 3 rows and 2 columns.
Aggregator did 1 substitutions.
All rows and columns eliminated.
Presolve time = 0.00 sec. (0.01 ticks)

Root node processing (before b&c):
  Real time             =    0.00 sec. (0.01 ticks)
Parallel b&c, 6 threads:
  Real time             =    0.00 sec. (0.00 ticks)
  Sync time (average)   =    0.00 sec.
  Wait time (average)   =    0.00 sec.
                          ------------
Total (root+branch&cut) =    0.00 sec. (0.01 ticks)

Solution pool: 2 solutions saved.

MIP - Integer optimal solution:  Objective =  6.9000000000e+03
Solution time =    0.00 sec.  Iterations = 0  Nodes = 0 (1)
Deterministic time = 0.01 ticks  (8.17 ticks/sec)


Log started (V20.1.0.0) Sun Apr 24 16:13:08 2022


Problem 'file.lp' read.
Read time = 0.00 sec. (0.00 ticks)
Version identifier: 20.1.0.0 | 2020-11-10 | 9bedb6d68
Tried aggregator 1 time.
LP Presolve eliminated 3 rows and 3 columns.
All rows and columns eliminated.
Presolve time = 0.00 sec. (0.00 ticks)

Dual simplex - Optimal:  Objective =  3.0000000000e+01
Solution time =    0.00 sec.  Iterations = 0 (0)
Deterministic time = 0.00 ticks  (2.61 ticks/sec)

